%%% static parameters %%%
timespan = 1;
Fact = [2];
Distr1 = [5];
Distr2 = [10];
Clients_N = [100];
Demand_W = [15];
Lt0 = [4];
Lt1 = [4];
SS_ = [0.85];
DS_D = [8];
K = [200];
MA = [500];
%%% dynamic parameters %%%
lost_ratio_sales_ret_th = 0.4926285690855805;
lost_ratio_sales_ret_w = 30;
lost_ratio_sales_dis_th = 0.03874727331224681;
lost_ratio_sales_dis_w = 86;
lost_ratio_sales_fac_th = 0.5617670458095481;
lost_ratio_sales_fac_w = 21;
stock_customer_MA_mean_relative_th = 0.5088493373503991;
stock_customer_MA_mean_relative_w = 76;
stock_distributor_MA_mean_relative_th = 0.4731608388368188;
stock_distributor_MA_mean_relative_w = 7;
stock_retailer_MA_mean_relative_th = 0.2036301593530292;
stock_retailer_MA_mean_relative_w = 18;
stock_factory_MA_mean_relative_th = 0.4925767019464953;
stock_factory_MA_mean_relative_w = 2;
